65 57 77 25 23 21 48 18 19 49 20 22 24 83 66 
52 86 74 58 75 97 59 87 99 90 
82 10 11 12 14 47 17 16 15 13 9 53 
100 2 4 45 5 3 1 70 68 
69 98 88 60 78 73 79 7 8 46 6 55 
61 42 44 43 40 36 35 37 38 39 41 72 54 
64 51 76 89 33 28 26 27 29 31 30 32 34 50 95 92 91 80 
56 84 85 63 62 67 71 93 94 96 81 
